Timesteps: 1
s UNSATISFIABLE
real 0.22
user 0.04
sys 0.00
Timesteps: 2
s UNSATISFIABLE
real 0.36
user 0.09
sys 0.00
Timesteps: 3
s UNSATISFIABLE
real 0.33
user 0.16
sys 0.02
Timesteps: 4
s UNSATISFIABLE
real 0.83
user 0.60
sys 0.02
Timesteps: 5
s UNSATISFIABLE
real 1.67
user 1.39
sys 0.02
Timesteps: 6
s UNSATISFIABLE
real 8.30
user 7.50
sys 0.04
Timesteps: 7
s UNSATISFIABLE
real 20.49
user 19.42
sys 0.05
Timesteps: 8
s UNSATISFIABLE
real 37.03
user 35.71
sys 0.10
Timesteps: 9
s UNSATISFIABLE
real 48.15
user 46.63
sys 0.12
Timesteps: 10
s UNSATISFIABLE
real 39.99
user 38.96
sys 0.12
Timesteps: 11
s UNSATISFIABLE
real 73.05
user 72.01
sys 0.15
Timesteps: 12
s UNSATISFIABLE
real 175.69
user 173.17
sys 0.24
Timesteps: 13
s UNSATISFIABLE
real 502.43
user 499.11
sys 0.43
Timesteps: 14
s UNSATISFIABLE
real 1501.23
user 1492.51
sys 0.96
Timesteps: 15
